evm/ejemplos_dzn/EthPriceMintModule_run_code_of_0_block_55_0_input.dzn
TERM = { '.', s0, s2, s3, s4};
null = '.';
s = 3;
n = 2;
min = 3;
N0 = 1;
ZEROARYOP = { CALLVALUE_0 };
zeroout = [ s4 ];
zerogas = [ 2 ];
zerosz = [ 1 ];
zerolb = [ 1 ];
zeroub = [ 3 ];
N1 = 0;
UNARYOP = {};
unin =  [];
unout = [];
ungas = [];
unsz =  [];
unlb =  [];
unub =  [];
N2 = 1;
BINARYOP = { EQ_0 };
binin1 = [s4 ];
binin2 = [s0 ];
binout = [s3 ];
bincomm = [true ];
bingas = [3 ];
binsz = [1 ];
binlb = [ 1 ];
binub = [ 3 ];
NA = 0;
ASSOCIATIVEADDOP = {};
naddin =  [];
addin =  [||];
addout = [];
addcomm = [];
addgas = [];
addsz =  [];
addlb =  [];
addub =  [];
NPUSH = 1;
PUSHOP = { 'PUSH [tag]_0' };
pushout = [ s2 ];
pushgas = [ 3 ];
pushsz = [ 3 ];
pushlb = [ 1 ];
pushub = [ 3 ];
NSTORE = 0;
STOROP = {};
storin1 =  [];
storin2 =  [];
storlb =  [];
storub =  [];
storgas = [];
storsz = [];
DUP_ENUM = { DUP1};
SWAP_ENUM = { SWAP1};
startstack = [ s0, null ];
endstack = [ s2, s3 ];
m_dep_n = 0;
memory_dependences = [| |];
s_dep_n = 0;
store_dependences = [| |];
lib = false;
nlib = 0;
lib_elem = [| |];
lib_dis = [];
