evm/ejemplos_results/EthPriceMintModule_run_code_of_0_block_55_0_input.txt
value = 3;
fgas = [2, 3, 3];
fsize = [1, 1, 3];
states = 
[| s0, '.'
 | s4,  s0
 | s3, '.'
 | s2,  s3
 |];
program = [Z(CALLVALUE_0), BI(EQ_0), P('PUSH [tag]_0')];
% time elapsed: 0.47 s
----------
==========
% time elapsed: 0.47 s
% [value > 2]
